u120_11
150 120 49 52
77 0
78 1
35 0
33 0
94 2
36 1
59 3
85 3
98 4
80 5
79 6
68 5
61 6
27 1
95 7
83 8
91 9
90 10
38 2
93 11
22 4
35 7
38 8
100 12
26 4
35 9
64 13
40 10
79 13
49 11
88 14
41 12
28 8
62 15
78 15
65 16
90 17
35 14
50 16
62 18
91 19
57 17
60 18
50 19
28 16
77 20
97 21
35 20
40 21
21 9
73 22
30 20
75 22
50 23
27 18
58 23
59 24
94 25
60 24
55 25
89 26
84 27
91 28
65 27
99 29
89 30
83 31
47 26
52 28
24 14
66 31
98 32
51 30
21 23
23 24
78 33
41 29
99 34
52 33
36 32
69 35
70 35
91 36
54 36
38 34
98 37
57 38
64 38
76 39
61 39
31 37
27 38
23 40
22 40
61 40
65 41
35 40
37 41
75 42
54 42
97 43
45 41
78 44
22 43
79 45
76 46
81 47
78 48
41 44
59 45
28 43
58 46
90 49
78 50
57 47
63 48
24 44
27 49
79 51
67 50